(set-logic QF_S)
(declare-fun var0 () String)
(declare-fun var1 () Int)
(declare-fun var2 () Int)
(declare-fun var3 () Int)
(declare-fun var4 () String)
(declare-fun var5 () String)
(declare-fun var6 () String)
(declare-fun var7 () Int)
(assert (str.contains (str.substr var0 var1 197) (str.substr "gB](c1z_Wu" var2 var3)))
(assert (>= (str.len var4) (str.to.int var5)))
(assert (str.suffixof (str.at (str.substr var6 var7 var7) (str.to.int var5)) (str.substr (str.at var6 var2) (str.indexof var4 var5 var1) (str.len var5))))
(assert (< var3 var2))
(check-sat)